Maximize 
+ C(1) + C(2) + C(3) + C(4) + C(5) + C(6) + C(7) + C(8) + C(9) + C(10) + C(11) + C(12) + C(13) + C(14) + C(15) + C(16) + C(17) 
such that 

C(1) + C(2) <= 1
C(1) + C(3) <= 1
C(1) + C(4) <= 1
C(1) + C(5) <= 1
C(1) + C(7) <= 1
C(1) + C(8) <= 1
C(1) + C(9) <= 1
C(1) + C(11) <= 1
C(1) + C(13) <= 1
C(1) + C(15) <= 1
C(1) + C(17) <= 1
C(2) + C(3) <= 1
C(2) + C(10) <= 1
C(2) + C(11) <= 1
C(2) + C(13) <= 1
C(2) + C(17) <= 1
C(3) + C(4) <= 1
C(3) + C(5) <= 1
C(3) + C(6) <= 1
C(3) + C(7) <= 1
C(3) + C(9) <= 1
C(3) + C(11) <= 1
C(3) + C(13) <= 1
C(4) + C(9) <= 1
C(4) + C(10) <= 1
C(4) + C(15) <= 1
C(4) + C(16) <= 1
C(5) + C(6) <= 1
C(5) + C(7) <= 1
C(5) + C(9) <= 1
C(5) + C(12) <= 1
C(5) + C(16) <= 1
C(6) + C(8) <= 1
C(6) + C(10) <= 1
C(6) + C(14) <= 1
C(6) + C(15) <= 1
C(6) + C(16) <= 1
C(6) + C(17) <= 1
C(7) + C(9) <= 1
C(7) + C(10) <= 1
C(7) + C(12) <= 1
C(7) + C(14) <= 1
C(7) + C(17) <= 1
C(8) + C(9) <= 1
C(8) + C(10) <= 1
C(8) + C(12) <= 1
C(8) + C(14) <= 1
C(8) + C(15) <= 1
C(8) + C(16) <= 1
C(9) + C(13) <= 1
C(9) + C(15) <= 1
C(9) + C(16) <= 1
C(9) + C(17) <= 1
C(10) + C(12) <= 1
C(10) + C(13) <= 1
C(10) + C(14) <= 1
C(10) + C(16) <= 1
C(11) + C(12) <= 1
C(11) + C(14) <= 1
C(11) + C(15) <= 1
C(11) + C(16) <= 1
C(11) + C(17) <= 1
C(12) + C(13) <= 1
C(12) + C(15) <= 1
C(13) + C(14) <= 1
C(13) + C(17) <= 1
C(16) + C(17) <= 1
binary 
C(1)
C(2)
C(3)
C(4)
C(5)
C(6)
C(7)
C(8)
C(9)
C(10)
C(11)
C(12)
C(13)
C(14)
C(15)
C(16)
C(17)
end